p wcnf 186 93 94 
1 46 37 0 
1 -111 181 0 
1 -71 82 0 
1 15 60 0 
1 28 -98 0 
1 92 -162 0 
1 176 95 0 
1 100 145 0 
1 89 58 0 
1 35 44 0 
1 -94 34 0 
1 -40 157 0 
1 116 125 0 
1 177 -42 0 
1 -128 -170 0 
1 -163 118 0 
1 -56 -73 0 
1 -150 -47 0 
1 -182 45 0 
1 -162 -117 0 
1 7 -178 0 
1 -96 -49 0 
1 1 82 0 
1 -10 47 0 
1 -58 -109 0 
1 -31 172 0 
1 -40 -179 0 
1 -83 -142 0 
1 49 -73 0 
1 -126 -29 0 
1 155 -96 0 
1 -110 17 0 
1 -40 18 0 
1 -119 -161 0 
1 -131 -125 0 
1 -25 175 0 
1 -39 37 0 
1 26 126 0 
1 -98 -44 0 
1 -1 78 0 
1 128 -147 0 
1 -25 -161 0 
1 -38 97 0 
1 109 -81 0 
1 -179 135 0 
1 -118 124 0 
1 128 -140 0 
1 26 -150 0 
1 135 -162 0 
1 -45 -81 0 
1 85 38 0 
1 -42 -82 0 
1 138 167 0 
1 151 -13 0 
1 -133 -100 0 
1 154 -71 0 
1 78 7 0 
1 39 -63 0 
1 133 26 0 
1 152 -2 0 
1 75 103 0 
1 6 -21 0 
1 117 -156 0 
1 -90 -134 0 
1 130 36 0 
1 -68 167 0 
1 -153 186 0 
1 -78 74 0 
1 -181 186 0 
1 21 -70 0 
1 143 -77 0 
1 -108 -19 0 
1 117 -175 0 
1 108 141 0 
1 158 -170 0 
1 -19 -165 0 
1 93 47 0 
1 92 13 0 
1 -70 179 0 
1 126 22 0 
1 -7 100 0 
1 -68 57 0 
1 -46 37 0 
1 -61 92 0 
1 -164 -161 0 
1 39 -58 0 
1 -148 42 0 
1 154 -15 0 
1 -144 -102 0 
1 -139 -105 0 
1 -184 -147 0 
1 -128 147 0 
1 -138 131 0 
